200
750
597
593
592
592
589
589
588
588
587
585
585
583
580
578
578
575
571
560
559
553
552
550
547
546
544
541
539
537
530
526
523
521
519
519
518
517
516
513
510
509
505
505
505
504
499
494
494
493
489
488
485
485
481
480
475
471
469
467
467
466
465
463
462
462
458
457
456
455
452
452
452
450
450
450
450
448
445
439
437
435
432
428
426
420
414
413
413
411
409
408
408
405
401
399
399
398
396
395
394
390
390
389
382
381
380
377
376
375
373
373
371
370
370
370
368
366
360
357
356
356
349
349
349
337
334
330
328
328
328
326
325
325
323
321
313
312
311
309
308
307
305
304
303
300
300
300
298
295
294
294
290
287
286
280
278
278
277
276
269
268
267
261
258
257
252
250
240
238
237
235
231
227
227
227
227
225
225
211
209
208
208
197
192
189
186
186
186
186
179
177
177
171
170
161
159
158
158
158
154
151
